
  32    1
  10

   0   0   6 2 4 5 6 7 15 
   4   4   3 14 10 3 
   5   8   5 23 17 11 9 8 
   3   9   5 23 17 14 13 9 
   5  10   5 23 22 17 14 9 
   8  10   5 22 18 14 13 12 
   4  10   3 16 14 8 
   4   8   4 22 21 18 13 
   8   7   5 31 29 21 18 16 
   3  10   4 31 19 18 16 
   4   8   6 31 26 22 21 20 19 
   9   5   3 31 19 16 
   7  10   6 31 30 28 26 24 19 
   3   7   6 29 27 26 25 21 20 
   1  10   5 29 26 25 21 20 
   7   6   4 30 28 26 20 
   2  10   4 30 26 25 20 
   5   8   3 27 25 20 
   9   7   3 29 27 25 
   5   8   1 24 
   9   8   1 28 
   1  10   1 24 
   4  10   1 27 
   8   4   1 32
   5   5   1 32
   8   7   1 32
   5   6   1 32
   6   9   1 32
   9   7   1 32
   4  10   1 32
   9   9   1 32
   0   0   0 
